(set-info :Origin "This instance was generated by: BanditFuzz-- an RL fuzzer for SMT solvers" )
(set-info :Author "Joe Scott, Fed Mora, Vijay Ganesh" )
(set-info :Contact "Joe Scott, joseph.scott@uwaterloo.ca")
(set-logic QF_BV)
(declare-const bool_0 Bool)
(declare-const bool_1 Bool)
(declare-const bool_2 Bool)
(declare-const bool_3 Bool)
(declare-const bool_4 Bool)
(declare-const bv_0 (_ BitVec 32))
(declare-const bv_1 (_ BitVec 32))
(declare-const bv_2 (_ BitVec 32))
(declare-const bv_3 (_ BitVec 32))
(declare-const bv_4 (_ BitVec 32))
(assert (=> (or (xor false false) (bvuge #x9b0cae9d  #x7384792d )) (=> (bvugt #x63b834c7  #xd4f8ba40 ) (bvuge #x94ee3bc7  #x7d572b60 ))))
(assert (bvsgt (bvadd (bvand #x0210d832  bv_2) (bvsrem bv_1 bv_1)) (bvudiv (bvnand bv_1 bv_0) (bvudiv #x6d98d2d5  #x1c3271f4 ))))
(assert (bvsle (bvurem (bvsub bv_3 bv_4) (bvnand #xc204b816  #x0137cf97 )) (bvnand (bvudiv bv_3 #xdfac262b ) (bvsrem bv_2 bv_1))))
(assert (bvugt (bvsub (bvsrem bv_2 bv_0) (bvshl #xe99924b3  bv_4)) (bvxnor (bvshl #x277d3142  #x008294ce ) (bvmul bv_4 bv_2))))
(assert (bvsgt (bvsdiv (bvand #x469153a6  #x021a0a68 ) (bvadd #x354a83c6  #xe5490648 )) (bvsub (bvsdiv #x4454ff49  bv_2) (bvmul bv_2 #xf0542bc0 ))))
(check-sat)
(exit)
